NAME: .\SDVRP instances\p11\p11_00
BEST_KNOWN: 0
COMMENT: 0
DIMENSION: 121
CAPACITY: 200
EDGE_WEIGHT_FORMAT: FUNCTION
EDGE_WEIGHT_TYPE: EXACT_2D
NODE_COORD_SECTION
1 0 0
2 15 -44
3 15 -42
4 21 -40
5 22 -40
6 21 -38
7 22 -36
8 24 -36
9 36 -36
10 25 -38
11 24 -39
12 25 -40
13 37 -39
14 30 -40
15 29 -42
16 26 -42
17 63 -39
18 63 -37
19 14 -9
20 66 -39
21 66 -35
22 66 -32
23 68 -42
24 68 -36
25 69 -42
26 69 -40
27 69 -34
28 72 -42
29 72 -38
30 80 -30
31 74 -42
32 74 -40
33 74 -36
34 75 -44
35 77 -40
36 75 -37
37 77 -38
38 76 -4
39 76 -1
40 76 1
41 75 10
42 79 -2
43 79 1
44 79 7
45 82 -3
46 82 7
47 84 -3
48 84 -1
49 84 3
50 86 -3
51 89 1
52 89 5
53 73 35
54 73 38
55 75 36
56 75 40
57 75 44
58 77 35
59 77 41
60 80 32
61 80 43
62 83 37
63 83 39
64 83 44
65 84 41
66 85 35
67 89 44
68 27 38
69 40 35
70 25 40
71 25 42
72 34 41
73 36 44
74 36 38
75 36 42
76 36 44
77 38 38
78 40 40
79 40 43
80 44 41
81 44 45
82 0 -10
83 0 -5
84 8 -15
85 7 -10
86 6 -7
87 4 -5
88 5 -3
89 1 -3
90 8 -5
91 11 -6
92 10 -5
93 8 -4
94 10 -1
95 12 -1
96 6 0
97 10 0
98 15 0
99 20 10
100 10 5
101 12 6
102 8 4
103 6 3
104 10 10
105 8 8
106 4 5
107 5 6
108 6 9
109 18 -12
110 23 -7
111 20 5
112 3 -5
113 5 -9
114 8 -14
115 15 -8
116 20 1
117 15 7
118 6 -12
119 15 -10
120 -5 -5
121 -5 5
DEMAND_SECTION
1 0
2 25
3 7
4 13
5 6
6 14
7 5
8 11
9 19
10 5
11 15
12 15
13 17
14 13
15 12
16 18
17 13
18 18
19 12
20 17
21 4
22 7
23 12
24 13
25 8
26 16
27 15
28 6
29 5
30 9
31 11
32 10
33 3
34 7
35 2
36 4
37 4
38 18
39 14
40 12
41 17
42 20
43 14
44 16
45 10
46 9
47 11
48 7
49 13
50 5
51 4
52 21
53 13
54 11
55 12
56 14
57 10
58 8
59 16
60 19
61 5
62 17
63 7
64 16
65 14
66 17
67 13
68 17
69 13
70 14
71 16
72 7
73 13
74 9
75 11
76 35
77 5
78 28
79 7
80 3
81 10
82 7
83 12
84 11
85 10
86 8
87 11
88 21
89 4
90 15
91 16
92 4
93 16
94 7
95 10
96 9
97 11
98 17
99 12
100 11
101 7
102 9
103 11
104 12
105 7
106 8
107 6
108 5
109 12
110 13
111 7
112 7
113 8
114 11
115 13
116 11
117 10
118 7
119 4
120 20
121 13
DEPOT_SECTION
1
-1
EOF
